[VALIDATOR STDOUT]
Checking plan: /home/jfan5/Safety-gen/runs/benchmark/optic/ferry_20260201_171235/ferry/optic_results/ferry-l15-c08-s15001.plan
Plan executed successfully - checking goal
Plan valid
Final value: 29 

Successful plans:
Value: 29
 /home/jfan5/Safety-gen/runs/benchmark/optic/ferry_20260201_171235/ferry/optic_results/ferry-l15-c08-s15001.plan 29
